Optimal - objective value 22.00000000
      8 x_0_9                   1                       0
     38 x_2_4                   1                       1
     49 x_2_15                  1                       2
     59 x_3_9                   1                       2
     60 x_3_10                  1                       4
     65 x_3_15                  1                       3
     71 x_4_6                   1                       1
     78 x_4_13                  1                       2
    114 x_7_10                  1                       1
    144 x_9_19                  1                       3
    206 f_0_9                   7         -0.428571428571429
    266 f_2_4                   5                       0
    267 f_4_2                   2                       0
    288 f_2_15                  2                       0
    289 f_15_2                  5                       0
    308 f_3_9     0.499999999999999                       0
    309 f_9_3                 6.5                       0
    310 f_3_10                  4                       0
    311 f_10_3                  3                       0
    320 f_3_15                5.5                       0
    321 f_15_3                1.5                       0
    332 f_4_6                   4                       0
    333 f_6_4                   3                       0
    346 f_4_13                  4                       0
    347 f_13_4                  3                       0
    418 f_7_10                  3                       0
    419 f_10_7                  4                       0
    478 f_9_19                  4                       0
    479 f_19_9                  3                       0
